
Gurobi 7.0.1 (linux64) logging started Mon Jul  3 08:39:21 2017

Optimize a model with 21691 rows, 14464 columns and 73015 nonzeros
Variable types: 0 continuous, 14464 integer (14464 binary)
Coefficient statistics:
  Matrix range     [1e+00, 9e+00]
  Objective range  [1e+00, 1e+00]
  Bounds range     [1e+00, 1e+00]
  RHS range        [1e+00, 5e+01]
Presolve removed 21350 rows and 14165 columns
Presolve time: 0.07s
Presolved: 341 rows, 299 columns, 2588 nonzeros
Variable types: 0 continuous, 299 integer (299 binary)

Root relaxation: objective 5.000000e+00, 38 iterations, 0.00 seconds

    Nodes    |    Current Node    |     Objective Bounds      |     Work
 Expl Unexpl |  Obj  Depth IntInf | Incumbent    BestBd   Gap | It/Node Time

     0     0    5.00000    0    2          -    5.00000      -     -    0s
     0     0    5.00000    0    3          -    5.00000      -     -    0s
     0     0    5.00000    0    2          -    5.00000      -     -    0s
     0     0    5.00000    0    2          -    5.00000      -     -    0s
     0     0    5.00000    0    3          -    5.00000      -     -    0s
     0     0    5.00000    0    2          -    5.00000      -     -    0s
     0     0    5.00000    0    3          -    5.00000      -     -    0s
     0     0    5.00000    0    2          -    5.00000      -     -    0s
     0     0    5.00000    0    2          -    5.00000      -     -    0s
H    0     0                       4.0000000    5.00000  25.0%     -    0s
     0     0     cutoff    0         4.00000    4.00000  0.00%     -    0s

Cutting planes:
  Gomory: 1
  MIR: 2
  Lazy constraints: 9

Explored 0 nodes (166 simplex iterations) in 0.21 seconds
Thread count was 12 (of 12 available processors)

Solution count 1: 4 
Pool objective bound 4

Optimal solution found (tolerance 1.00e-04)
Best objective 4.000000000000e+00, best bound 4.000000000000e+00, gap 0.0000%
Optimize a model with 21691 rows, 14464 columns and 73015 nonzeros
Variable types: 0 continuous, 14464 integer (14464 binary)
Coefficient statistics:
  Matrix range     [1e+00, 9e+00]
  Objective range  [1e-01, 9e-01]
  Bounds range     [1e+00, 1e+00]
  RHS range        [1e+00, 5e+01]
Presolve removed 21350 rows and 14165 columns
Presolve time: 0.06s
Presolved: 341 rows, 299 columns, 2588 nonzeros

Loaded MIP start with objective 9.99201e-16

Variable types: 0 continuous, 299 integer (299 binary)

Root relaxation: objective 3.142857e+00, 46 iterations, 0.00 seconds

    Nodes    |    Current Node    |     Objective Bounds      |     Work
 Expl Unexpl |  Obj  Depth IntInf | Incumbent    BestBd   Gap | It/Node Time

     0     0    2.14286    0    2    0.00000    2.14286      -     -    0s
H    0     0                       1.1428571    2.14286  87.5%     -    0s
     0     0    2.14286    0    2    1.14286    2.14286  87.5%     -    0s
     0     0    2.14286    0    2    1.14286    2.14286  87.5%     -    0s
     0     0    2.14286    0    2    1.14286    2.14286  87.5%     -    0s

Cutting planes:
  Gomory: 1
  Zero half: 2

Explored 0 nodes (217 simplex iterations) in 0.18 seconds
Thread count was 12 (of 12 available processors)

Solution count 2: 1.14286 9.99201e-16 
Pool objective bound 1.14286

Optimal solution found (tolerance 1.00e-04)
Best objective 1.142857142857e+00, best bound 1.142857142857e+00, gap 0.0000%
Optimize a model with 21691 rows, 14464 columns and 73015 nonzeros
Variable types: 0 continuous, 14464 integer (14464 binary)
Coefficient statistics:
  Matrix range     [1e+00, 9e+00]
  Objective range  [2e-01, 8e-01]
  Bounds range     [1e+00, 1e+00]
  RHS range        [1e+00, 5e+01]
Presolve removed 21350 rows and 14165 columns
Presolve time: 0.05s
Presolved: 341 rows, 299 columns, 2588 nonzeros

Loaded MIP start with objective 2.22045e-16

Variable types: 0 continuous, 299 integer (299 binary)

Root relaxation: objective 2.000000e+00, 46 iterations, 0.00 seconds

    Nodes    |    Current Node    |     Objective Bounds      |     Work
 Expl Unexpl |  Obj  Depth IntInf | Incumbent    BestBd   Gap | It/Node Time

     0     0    1.00000    0    2    0.00000    1.00000      -     -    0s
     0     0    1.00000    0    2    0.00000    1.00000      -     -    0s
     0     0    1.00000    0    2    0.00000    1.00000      -     -    0s
     0     0    1.00000    0    2    0.00000    1.00000      -     -    0s

Cutting planes:
  Gomory: 1
  Zero half: 2

Explored 0 nodes (222 simplex iterations) in 0.17 seconds
Thread count was 12 (of 12 available processors)

Solution count 1: 2.22045e-16 
Pool objective bound 2.22045e-16

Optimal solution found (tolerance 1.00e-04)
Best objective 2.220446049250e-16, best bound 2.220446049250e-16, gap -
